PPdTi -2.447 0
1.224745
   0.00000000000000   2.53566514153999   2.53566514153999
   2.53566514153999   0.00000000000000   2.53566514153999
   2.53566514153999   2.53566514153999   0.00000000000000
1 1 2 
Direct(4) [A1B1C2] 
   0.00000000000000   0.00000000000000   0.00000000000000  P     
   0.50000000000000   0.50000000000000   0.50000000000000  Pd    
   0.25000000000000   0.25000000000000   0.25000000000000  Ti    
   0.75000000000000   0.75000000000000   0.75000000000000  Ti    
