PtReZr -2.35048 0
1.224745
   0.00000000000000   2.71691792120667   2.71691792120667
   2.71691792120667   0.00000000000000   2.71691792120667
   2.71691792120667   2.71691792120667   0.00000000000000
1 1 2 
Direct(4) [A1B1C2] 
   0.00000000000000   0.00000000000000   0.00000000000000  Pt    
   0.50000000000000   0.50000000000000   0.50000000000000  Re    
   0.75000000000000   0.75000000000000   0.75000000000000  Zr    
   0.25000000000000   0.25000000000000   0.25000000000000  Zr    
