PbReTe 12.4245 0
1.224745
   5.86747008011054   0.00000000000000   0.00000000000000
   0.00000000000000   5.86747008011054   0.00000000000000
   0.00000000000000   0.00000000000000   5.86747008011054
4 4 8 
Direct(16) [A4B4C8] 
   0.00000000000000   0.00000000000000   0.00000000000000  Pb    
   0.50000000000000   0.50000000000000   0.00000000000000  Pb    
   0.50000000000000   0.00000000000000   0.50000000000000  Pb    
   0.00000000000000   0.50000000000000   0.50000000000000  Pb    
   0.50000000000000   0.00000000000000   0.00000000000000  Re    
   0.00000000000000   0.50000000000000   0.00000000000000  Re    
   0.00000000000000   0.00000000000000   0.50000000000000  Re    
   0.50000000000000   0.50000000000000   0.50000000000000  Re    
   0.75000000000000   0.25000000000000   0.25000000000000  Te    
   0.25000000000000   0.75000000000000   0.25000000000000  Te    
   0.25000000000000   0.25000000000000   0.75000000000000  Te    
   0.75000000000000   0.75000000000000   0.75000000000000  Te    
   0.25000000000000   0.25000000000000   0.25000000000000  Te    
   0.75000000000000   0.75000000000000   0.25000000000000  Te    
   0.75000000000000   0.25000000000000   0.75000000000000  Te    
   0.25000000000000   0.75000000000000   0.75000000000000  Te    
