PSeSr -4.69633 0.5947
1.224745
   0.00000000000000   3.09121091512541   3.09121091512541
   3.09121091512541   0.00000000000000   3.09121091512541
   3.09121091512541   3.09121091512541   0.00000000000000
1 1 2 
Direct(4) [A1B1C2] 
   0.00000000000000   0.00000000000000   0.00000000000000  P     
   0.50000000000000   0.50000000000000   0.50000000000000  Se    
   0.75000000000000   0.75000000000000   0.75000000000000  Sr    
   0.25000000000000   0.25000000000000   0.25000000000000  Sr    
