OsSeZn 2.54546 0
1.224745
   0.00000000000000   2.58479724164155   2.58479724164155
   2.58479724164155   0.00000000000000   2.58479724164155
   2.58479724164155   2.58479724164155   0.00000000000000
1 1 2 
Direct(4) [A1B1C2] 
   0.00000000000000   0.00000000000000   0.00000000000000  Os    
   0.50000000000000   0.50000000000000   0.50000000000000  Se    
   0.75000000000000   0.75000000000000   0.75000000000000  Zn    
   0.25000000000000   0.25000000000000   0.25000000000000  Zn    
