PdRuSr 0.778655 0
1.224745
   0.00000000000000   2.98816410487643   2.98816410487643
   2.98816410487643   0.00000000000000   2.98816410487643
   2.98816410487643   2.98816410487643   0.00000000000000
1 1 2 
Direct(4) [A1B1C2] 
   0.00000000000000   0.00000000000000   0.00000000000000  Pd    
   0.50000000000000   0.50000000000000   0.50000000000000  Ru    
   0.75000000000000   0.75000000000000   0.75000000000000  Sr    
   0.25000000000000   0.25000000000000   0.25000000000000  Sr    
