PtTcZn -0.217645 1.61255
1.224745
   0.00000000000000   2.50961354276648   2.50961354276648
   2.50961354276648   0.00000000000000   2.50961354276648
   2.50961354276648   2.50961354276648   0.00000000000000
1 1 2 
Direct(4) [A1B1C2] 
   0.00000000000000   0.00000000000000   0.00000000000000  Pt    
   0.50000000000000   0.50000000000000   0.50000000000000  Tc    
   0.75000000000000   0.75000000000000   0.75000000000000  Zn    
   0.25000000000000   0.25000000000000   0.25000000000000  Zn    
