PPbTe 1.57856 0
1.224745
   0.00000000000000   3.06986863494304   3.06986863494304
   3.06986863494304   0.00000000000000   3.06986863494304
   3.06986863494304   3.06986863494304   0.00000000000000
1 1 2 
Direct(4) [A1B1C2] 
   0.00000000000000   0.00000000000000   0.00000000000000  P     
   0.50000000000000   0.50000000000000   0.50000000000000  Pb    
   0.75000000000000   0.75000000000000   0.75000000000000  Te    
   0.25000000000000   0.25000000000000   0.25000000000000  Te    
