PbScTa 2.68417 0
1.224745
   0.00000000000000   2.86571429847532   2.86571429847532
   2.86571429847532   0.00000000000000   2.86571429847532
   2.86571429847532   2.86571429847532   0.00000000000000
1 1 2 
Direct(4) [A1B1C2] 
   0.00000000000000   0.00000000000000   0.00000000000000  Pb    
   0.50000000000000   0.50000000000000   0.50000000000000  Sc    
   0.75000000000000   0.75000000000000   0.75000000000000  Ta    
   0.25000000000000   0.25000000000000   0.25000000000000  Ta    
