PtTcTe 1.59689 1.73042
1.224745
   0.00000000000000   2.78061703548842   2.78061703548842
   2.78061703548842   0.00000000000000   2.78061703548842
   2.78061703548842   2.78061703548842   0.00000000000000
1 1 2 
Direct(4) [A1B1C2] 
   0.00000000000000   0.00000000000000   0.00000000000000  Pt    
   0.50000000000000   0.50000000000000   0.50000000000000  Tc    
   0.25000000000000   0.25000000000000   0.25000000000000  Te    
   0.75000000000000   0.75000000000000   0.75000000000000  Te    
