OsReTa -1.40525 0
1.224745
   0.00000000000000   2.60806496445012   2.60806496445012
   2.60806496445012   0.00000000000000   2.60806496445012
   2.60806496445012   2.60806496445012   0.00000000000000
1 1 2 
Direct(4) [A1B1C2] 
   0.00000000000000   0.00000000000000   0.00000000000000  Os    
   0.50000000000000   0.50000000000000   0.50000000000000  Re    
   0.75000000000000   0.75000000000000   0.75000000000000  Ta    
   0.25000000000000   0.25000000000000   0.25000000000000  Ta    
