PbPdY -2.51088 0
1.224745
   0.00000000000000   3.07760532298553   3.07760532298553
   3.07760532298553   0.00000000000000   3.07760532298553
   3.07760532298553   3.07760532298553   0.00000000000000
1 1 2 
Direct(4) [A1B1C2] 
   0.00000000000000   0.00000000000000   0.00000000000000  Pb    
   0.50000000000000   0.50000000000000   0.50000000000000  Pd    
   0.25000000000000   0.25000000000000   0.25000000000000  Y     
   0.75000000000000   0.75000000000000   0.75000000000000  Y     
