PbWY 1.09317 0
1.224745
   0.00000000000000   3.04632974952960   3.04632974952960
   3.04632974952960   0.00000000000000   3.04632974952960
   3.04632974952960   3.04632974952960   0.00000000000000
1 1 2 
Direct(4) [A1B1C2] 
   0.00000000000000   0.00000000000000   0.00000000000000  Pb    
   0.50000000000000   0.50000000000000   0.50000000000000  W     
   0.75000000000000   0.75000000000000   0.75000000000000  Y     
   0.25000000000000   0.25000000000000   0.25000000000000  Y     
