PtTaY -0.323933 2.63982
1.224745
   0.00000000000000   2.91295845361759   2.91295845361759
   2.91295845361759   0.00000000000000   2.91295845361759
   2.91295845361759   2.91295845361759   0.00000000000000
1 1 2 
Direct(4) [A1B1C2] 
   0.00000000000000   0.00000000000000   0.00000000000000  Pt    
   0.50000000000000   0.50000000000000   0.50000000000000  Ta    
   0.75000000000000   0.75000000000000   0.75000000000000  Y     
   0.25000000000000   0.25000000000000   0.25000000000000  Y     
