PbRhSb 0.50798 0
1.224745
   0.00000000000000   2.94745654390811   2.94745654390811
   2.94745654390811   0.00000000000000   2.94745654390811
   2.94745654390811   2.94745654390811   0.00000000000000
1 1 2 
Direct(4) [A1B1C2] 
   0.00000000000000   0.00000000000000   0.00000000000000  Pb    
   0.50000000000000   0.50000000000000   0.50000000000000  Rh    
   0.25000000000000   0.25000000000000   0.25000000000000  Sb    
   0.75000000000000   0.75000000000000   0.75000000000000  Sb    
