PbScSr 0.02716 0
1.224745
   0.00000000000000   3.36610139682736   3.36610139682736
   3.36610139682736   0.00000000000000   3.36610139682736
   3.36610139682736   3.36610139682736   0.00000000000000
1 1 2 
Direct(4) [A1B1C2] 
   0.00000000000000   0.00000000000000   0.00000000000000  Pb    
   0.50000000000000   0.50000000000000   0.50000000000000  Sc    
   0.25000000000000   0.25000000000000   0.25000000000000  Sr    
   0.75000000000000   0.75000000000000   0.75000000000000  Sr    
