PPbPt 0.841117 0
1.224745
   0.00000000000000   2.70917024610119   2.70917024610119
   2.70917024610119   0.00000000000000   2.70917024610119
   2.70917024610119   2.70917024610119   0.00000000000000
1 1 2 
Direct(4) [A1B1C2] 
   0.00000000000000   0.00000000000000   0.00000000000000  P     
   0.50000000000000   0.50000000000000   0.50000000000000  Pb    
   0.25000000000000   0.25000000000000   0.25000000000000  Pt    
   0.75000000000000   0.75000000000000   0.75000000000000  Pt    
