OsRhSe 1.79304 0
1.224745
   0.00000000000000   2.57603270974233   2.57603270974233
   2.57603270974233   0.00000000000000   2.57603270974233
   2.57603270974233   2.57603270974233   0.00000000000000
1 1 2 
Direct(4) [A1B1C2] 
   0.00000000000000   0.00000000000000   0.00000000000000  Os    
   0.50000000000000   0.50000000000000   0.50000000000000  Rh    
   0.25000000000000   0.25000000000000   0.25000000000000  Se    
   0.75000000000000   0.75000000000000   0.75000000000000  Se    
