PdTeTl 0.364407 0
1.224745
   0.00000000000000   3.07685773379883   3.07685773379883
   3.07685773379883   0.00000000000000   3.07685773379883
   3.07685773379883   3.07685773379883   0.00000000000000
1 1 2 
Direct(4) [A1B1C2] 
   0.00000000000000   0.00000000000000   0.00000000000000  Pd    
   0.50000000000000   0.50000000000000   0.50000000000000  Te    
   0.75000000000000   0.75000000000000   0.75000000000000  Tl    
   0.25000000000000   0.25000000000000   0.25000000000000  Tl    
