PbSiTe 1.1713 0
1.224745
   0.00000000000000   3.10983287193641   3.10983287193641
   3.10983287193641   0.00000000000000   3.10983287193641
   3.10983287193641   3.10983287193641   0.00000000000000
1 1 2 
Direct(4) [A1B1C2] 
   0.00000000000000   0.00000000000000   0.00000000000000  Pb    
   0.50000000000000   0.50000000000000   0.50000000000000  Si    
   0.25000000000000   0.25000000000000   0.25000000000000  Te    
   0.75000000000000   0.75000000000000   0.75000000000000  Te    
