PtRuZr -2.86304 0
1.224745
   0.00000000000000   2.71093098166384   2.71093098166384
   2.71093098166384   0.00000000000000   2.71093098166384
   2.71093098166384   2.71093098166384   0.00000000000000
1 1 2 
Direct(4) [A1B1C2] 
   0.00000000000000   0.00000000000000   0.00000000000000  Pt    
   0.50000000000000   0.50000000000000   0.50000000000000  Ru    
   0.25000000000000   0.25000000000000   0.25000000000000  Zr    
   0.75000000000000   0.75000000000000   0.75000000000000  Zr    
