PTcY -1.37505 0
1.224745
   0.00000000000000   2.81285451319317   2.81285451319317
   2.81285451319317   0.00000000000000   2.81285451319317
   2.81285451319317   2.81285451319317   0.00000000000000
1 1 2 
Direct(4) [A1B1C2] 
   0.00000000000000   0.00000000000000   0.00000000000000  P     
   0.50000000000000   0.50000000000000   0.50000000000000  Tc    
   0.25000000000000   0.25000000000000   0.25000000000000  Y     
   0.75000000000000   0.75000000000000   0.75000000000000  Y     
