PbTaW 3.00736 0
1.224745
   0.00000000000000   2.71106227085372   2.71106227085372
   2.71106227085372   0.00000000000000   2.71106227085372
   2.71106227085372   2.71106227085372   0.00000000000000
1 1 2 
Direct(4) [A1B1C2] 
   0.00000000000000   0.00000000000000   0.00000000000000  Pb    
   0.50000000000000   0.50000000000000   0.50000000000000  Ta    
   0.75000000000000   0.75000000000000   0.75000000000000  W     
   0.25000000000000   0.25000000000000   0.25000000000000  W     
